NAME : Gaspelle22-5-f.44749.tour
COMMENT : Length = 44749
COMMENT : Found by LKH-3 [Keld Helsgaun] Tue Dec 17 14:06:59 2024
TYPE : TOUR
DIMENSION : 32
TOUR_SECTION
1
12
13
9
10
14
15
18
16
11
6
7
8
21
20
19
22
27
25
24
23
17
28
2
29
3
26
30
4
31
5
32
-1
EOF
